12      4       
9       9       9       10      
0       0       0       0       0       4       2       3       4       5       
5       0       0       2       9       1       10      
5       9       0       1       6       2       6       8       
4       0       3       0       0       1       9       
4       1       0       4       2       1       6       
4       3       0       2       0       1       7       
4       1       0       4       0       1       11      
4       1       0       9       10      1       12      
4       0       0       6       0       1       12      
6       0       7       0       0       1       12      
1       4       7       0       0       1       12      
0       0       0       0       0       0       
